106
150
120	6
119	5
118	1
117	4
116	4
115	3
114	2
113	3
112	2
111	5
110	4
109	4
108	3
107	5
106	2
105	3
104	8
103	4
102	5
101	5
100	7
99	6
98	4
97	6
96	6
95	5
94	6
93	7
92	3
91	6
90	7
89	5
88	4
87	5
86	5
85	4
84	7
83	4
82	3
81	4
80	8
79	4
78	4
77	3
76	4
75	5
74	6
73	1
72	5
71	5
70	3
69	1
68	3
67	5
66	6
65	8
64	8
63	4
62	1
61	6
60	5
59	3
58	6
57	4
56	4
55	2
54	3
53	3
52	4
51	8
50	2
49	7
48	7
47	4
46	5
45	5
44	7
43	4
42	6
41	4
40	11
39	10
38	1
37	5
36	4
35	5
34	5
33	7
32	5
31	4
30	2
29	7
28	5
27	8
26	5
25	6
24	3
23	6
22	4
21	4
20	6
19	3
18	6
17	3
16	3
15	7
